100 953
1 2
1 5
1 15
1 34
1 40
1 49
1 52
1 59
1 60
1 69
1 72
1 78
1 88
1 90
1 92
1 93
2 12
2 14
2 15
2 18
2 24
2 30
2 34
2 45
2 46
2 54
2 62
2 64
2 67
2 69
2 81
2 83
2 87
2 89
2 91
2 96
2 99
3 5
3 10
3 11
3 15
3 16
3 21
3 28
3 31
3 35
3 37
3 41
3 45
3 46
3 50
3 52
3 62
3 64
3 66
3 71
3 82
3 89
3 90
3 97
3 100
4 9
4 30
4 38
4 50
4 53
4 56
4 61
4 63
4 76
4 77
4 82
4 85
4 86
4 89
4 91
4 100
5 12
5 13
5 27
5 28
5 33
5 42
5 43
5 48
5 59
5 60
5 65
5 66
5 67
5 70
5 74
5 76
5 92
6 7
6 11
6 12
6 16
6 25
6 33
6 34
6 40
6 44
6 46
6 47
6 48
6 50
6 53
6 57
6 66
6 67
6 70
6 73
6 92
6 98
6 100
7 12
7 13
7 15
7 18
7 25
7 39
7 48
7 49
7 56
7 67
7 84
7 100
8 12
8 15
8 16
8 19
8 21
8 25
8 38
8 45
8 63
8 66
8 67
8 75
8 78
8 79
8 82
8 83
8 89
8 90
8 99
9 14
9 18
9 22
9 24
9 29
9 50
9 57
9 63
9 65
9 67
9 70
9 71
9 77
9 84
9 91
9 92
9 97
10 13
10 15
10 17
10 37
10 43
10 45
10 61
10 71
10 74
10 78
10 85
10 86
10 87
10 96
10 98
11 13
11 18
11 19
11 21
11 43
11 55
11 63
11 69
11 72
11 75
11 77
11 84
11 91
12 17
12 19
12 31
12 32
12 40
12 44
12 47
12 48
12 64
12 65
12 76
12 77
12 78
12 83
13 15
13 20
13 22
13 24
13 37
13 54
13 55
13 61
13 63
13 66
13 68
13 72
13 81
13 85
13 87
13 90
13 99
14 19
14 22
14 24
14 28
14 29
14 31
14 35
14 46
14 57
14 63
14 67
14 69
14 73
14 74
14 76
14 78
14 81
14 82
14 90
14 92
14 95
14 99
15 17
15 36
15 38
15 58
15 66
15 68
15 83
15 90
15 92
15 95
15 98
16 21
16 22
16 31
16 36
16 37
16 46
16 61
16 63
16 75
16 77
16 80
16 81
16 82
16 96
17 23
17 25
17 36
17 38
17 40
17 41
17 45
17 47
17 64
17 77
17 84
17 85
18 23
18 28
18 34
18 36
18 48
18 49
18 56
18 62
18 72
18 78
18 80
18 83
18 84
18 97
19 25
19 43
19 49
19 50
19 57
19 75
19 81
19 82
19 87
19 93
19 94
19 95
19 96
19 99
20 21
20 22
20 23
20 24
20 26
20 33
20 35
20 36
20 37
20 41
20 51
20 52
20 58
20 69
20 75
20 85
20 92
20 95
20 96
20 99
21 25
21 26
21 31
21 35
21 39
21 48
21 58
21 63
21 64
21 68
21 75
21 77
21 79
21 81
21 82
21 87
21 93
21 94
21 100
22 36
22 46
22 53
22 57
22 67
22 69
22 75
22 78
22 82
22 87
22 99
23 24
23 26
23 28
23 34
23 35
23 53
23 57
23 73
23 79
23 81
23 83
23 88
23 90
23 91
23 92
23 93
23 94
23 96
23 98
23 99
24 32
24 34
24 49
24 50
24 51
24 59
24 62
24 63
24 68
24 81
24 90
25 43
25 47
25 49
25 50
25 57
25 65
25 67
25 85
25 100
26 28
26 39
26 41
26 50
26 51
26 53
26 54
26 63
26 66
26 70
26 75
26 77
26 80
26 90
26 93
26 94
26 95
26 99
27 36
27 42
27 54
27 59
27 65
27 72
27 73
27 94
28 48
28 55
28 60
28 68
28 69
28 70
28 75
28 79
28 84
28 85
28 90
29 31
29 35
29 36
29 44
29 56
29 59
29 62
29 70
30 38
30 45
30 48
30 57
30 61
30 70
30 71
30 83
30 88
30 91
30 92
30 93
30 96
30 97
30 99
31 34
31 42
31 44
31 49
31 64
31 66
31 69
31 71
31 76
31 94
31 98
32 35
32 39
32 67
32 68
32 72
32 75
32 78
32 81
32 84
32 86
32 88
32 91
32 92
32 97
32 98
32 99
33 35
33 39
33 46
33 48
33 49
33 61
33 73
33 75
33 84
33 86
33 94
33 96
33 100
34 42
34 46
34 50
34 61
34 65
34 85
34 88
34 89
34 91
34 93
34 94
34 95
34 97
34 100
35 36
35 39
35 45
35 46
35 51
35 52
35 58
35 66
35 67
35 72
35 80
35 81
35 96
35 100
36 37
36 38
36 39
36 44
36 45
36 46
36 49
36 50
36 52
36 54
36 56
36 57
36 75
36 76
36 82
36 83
36 90
36 92
36 94
36 95
36 100
37 43
37 44
37 46
37 73
37 75
37 76
38 40
38 46
38 58
38 59
38 65
38 78
38 83
38 84
38 89
38 92
38 94
39 41
39 42
39 56
39 59
39 71
39 72
39 96
39 100
40 44
40 53
40 56
40 69
40 76
40 78
40 81
40 83
40 85
40 86
40 99
41 44
41 48
41 54
41 57
41 58
41 68
41 72
42 43
42 44
42 45
42 51
42 57
42 64
42 68
42 71
42 73
42 75
42 76
42 78
42 81
42 82
42 83
42 85
42 97
43 44
43 46
43 50
43 54
43 59
43 60
43 68
43 69
43 76
43 96
43 97
43 98
44 46
44 50
44 51
44 59
44 63
44 78
44 82
44 88
44 91
44 92
44 99
44 100
45 46
45 47
45 84
45 86
45 90
45 91
45 96
45 97
46 47
46 51
46 53
46 54
46 61
46 70
46 72
46 73
46 76
46 79
46 82
46 83
46 93
46 94
46 96
47 53
47 54
47 58
47 59
47 63
47 68
47 73
47 74
47 76
47 77
47 78
47 81
47 82
47 83
47 85
47 86
47 91
47 92
47 94
47 100
48 51
48 52
48 53
48 57
48 59
48 67
48 76
48 79
48 81
48 87
48 93
49 53
49 55
49 58
49 61
49 63
49 66
49 87
49 90
49 92
49 93
49 94
49 95
50 58
50 64
50 70
50 71
50 72
50 90
50 91
50 93
50 94
51 52
51 54
51 55
51 56
51 61
51 75
51 81
51 84
51 86
51 87
51 93
52 53
52 55
52 56
52 62
52 63
52 65
52 66
52 68
52 75
52 79
52 85
52 87
52 90
53 54
53 56
53 58
53 60
53 62
53 68
53 81
53 85
53 90
53 94
54 56
54 59
54 63
54 66
54 67
54 69
54 72
54 74
54 80
54 81
54 86
54 88
54 97
55 60
55 72
55 78
55 82
55 86
55 95
55 100
56 57
56 58
56 63
56 73
56 77
56 79
56 83
56 96
57 65
57 72
57 74
57 77
57 80
57 88
57 93
58 63
58 66
58 68
58 69
58 75
58 82
58 86
58 99
59 63
59 65
59 72
59 73
59 74
59 85
59 98
60 67
60 72
60 73
60 75
60 76
60 78
60 82
60 89
60 93
60 96
61 62
61 68
61 88
61 90
61 96
62 71
62 77
62 87
62 89
62 90
62 94
62 99
63 65
63 78
63 89
63 93
63 96
63 97
63 98
63 100
64 68
64 72
64 75
64 80
64 82
64 88
64 92
64 94
64 96
64 100
65 67
65 68
65 74
65 77
65 80
65 87
65 90
65 97
66 70
66 82
66 89
66 99
67 77
67 78
67 82
67 85
67 88
67 94
68 72
68 73
68 81
68 85
68 92
68 100
69 88
69 89
69 91
69 92
69 99
70 84
70 87
70 94
70 95
71 81
71 83
71 86
71 95
71 100
72 80
72 92
72 98
72 100
73 74
73 77
73 78
73 79
73 80
73 82
73 85
73 93
73 95
73 100
74 77
74 78
74 79
74 84
74 91
75 76
75 77
75 81
75 83
75 88
75 100
76 78
76 79
76 80
76 86
76 88
76 89
76 93
77 79
77 82
77 89
77 95
78 87
78 91
78 95
79 84
80 81
80 94
80 98
80 99
81 89
81 91
81 93
81 99
82 86
82 91
82 96
83 96
84 89
84 90
84 91
84 95
84 98
84 100
85 95
85 99
86 90
86 95
87 88
87 94
87 99
88 92
88 94
89 90
89 91
89 92
89 93
90 91
90 95
91 100
92 93
92 95
92 98
92 99
94 98
95 96
97 98
98 99
98 100
